set VV := 0 1 2 3 4 5 6 7 8 9 10 11 12 13 14 15 16 17 18 19 20 21 22 23 24 ;
set VS := 0 1 2 3 4 5 6 7 8 9 10 11 12 13 14 15 16 17 18 19 20 21 22 23 24 25 26 27 28 29 30 31 32 33 34 35 36 37 38 39 40 41 42 43 44 45 46 47 48 49 50 51 52 53 ;
param cv := 
0 19
1 10
2 23
3 11
4 14
5 21
6 15
7 24
8 20
9 11
10 24
11 16
12 14
13 15
14 23
15 16
16 13
17 13
18 15
19 20
20 12
21 15
22 25
23 13
24 20
;
param cs := 
0 38
1 28
2 39
3 40
4 31
5 32
6 35
7 32
8 37
9 33
10 26
11 24
12 38
13 30
14 21
15 20
16 21
17 29
18 35
19 28
20 31
21 38
22 35
23 35
24 28
25 30
26 25
27 23
28 23
29 36
30 26
31 27
32 33
33 23
34 21
35 25
36 27
37 38
38 40
39 25
40 30
41 20
42 31
43 31
44 39
45 40
46 24
47 36
48 22
49 39
50 30
51 29
52 33
53 32
;
param bv:	 0 1 2 3 4 5 6 7 8 9 10 11 12 13 14 15 16 17 18 19 20 21 22 23 24 := 
		0 0 0 0 0 0 21 0 0 0 0 0 0 0 0 20 0 0 0 0 0 0 0 0 0 0 
		1 0 0 0 0 0 0 10 0 0 0 0 0 0 0 0 0 13 0 0 24 0 0 0 0 0 
		2 0 0 0 0 0 0 21 0 0 0 0 0 0 0 0 19 0 0 23 0 0 0 0 21 15 
		3 0 0 0 0 0 0 0 17 0 0 0 0 0 0 0 0 0 0 0 0 0 0 0 0 0 
		4 0 0 0 0 0 0 0 0 0 0 0 0 0 0 0 0 0 0 25 0 0 0 0 0 0 
		5 0 0 0 0 0 0 0 21 10 0 0 0 0 0 0 20 0 0 0 0 15 0 0 0 0 
		6 0 0 0 0 0 0 0 0 0 0 0 0 0 0 0 21 17 0 0 0 0 0 13 0 0 
		7 0 0 0 0 0 0 0 0 0 21 0 0 0 0 0 0 18 0 0 16 0 18 0 0 0 
		8 0 0 0 0 0 0 0 0 0 25 0 0 0 0 0 0 0 0 0 0 0 0 22 0 0 
		9 0 0 0 0 0 0 0 0 0 0 0 0 0 0 0 0 0 0 0 0 18 0 0 0 0 
		10 0 0 0 0 0 0 0 0 0 0 0 0 0 0 15 0 0 0 0 0 0 0 0 0 0 
		11 0 0 0 0 0 0 0 0 0 0 0 0 0 0 0 0 18 0 0 0 0 0 0 0 17 
		12 0 0 0 0 0 0 0 0 0 0 0 0 0 0 0 0 0 23 0 0 0 20 0 0 0 
		13 0 0 0 0 0 0 0 0 0 0 0 0 0 0 0 0 0 10 0 0 0 0 0 0 0 
		14 0 0 0 0 0 0 0 0 0 0 0 0 0 0 0 0 0 0 0 0 25 0 0 0 0 
		15 0 0 0 0 0 0 0 0 0 0 0 0 0 0 0 0 11 0 0 0 0 0 0 0 0 
		16 0 0 0 0 0 0 0 0 0 0 0 0 0 0 0 0 0 0 15 0 0 0 0 13 0 
		17 0 0 0 0 0 0 0 0 0 0 0 0 0 0 0 0 0 0 0 0 0 15 0 0 16 
		18 0 0 0 0 0 0 0 0 0 0 0 0 0 0 0 0 0 0 0 25 0 0 0 0 0 
		19 0 0 0 0 0 0 0 0 0 0 0 0 0 0 0 0 0 0 0 0 0 0 0 0 0 
		20 0 0 0 0 0 0 0 0 0 0 0 0 0 0 0 0 0 0 0 0 0 0 0 0 0 
		21 0 0 0 0 0 0 0 0 0 0 0 0 0 0 0 0 0 0 0 0 0 0 0 0 10 
		22 0 0 0 0 0 0 0 0 0 0 0 0 0 0 0 0 0 0 0 0 0 0 0 0 0 
		23 0 0 0 0 0 0 0 0 0 0 0 0 0 0 0 0 0 0 0 0 0 0 0 0 0 
		24 0 0 0 0 0 0 0 0 0 0 0 0 0 0 0 0 0 0 0 0 0 0 0 0 0 
;
param bs:	 0 1 2 3 4 5 6 7 8 9 10 11 12 13 14 15 16 17 18 19 20 21 22 23 24 25 26 27 28 29 30 31 32 33 34 35 36 37 38 39 40 41 42 43 44 45 46 47 48 49 50 51 52 53 := 
		0 0 31 0 0 0 0 0 0 0 0 0 0 0 0 0 0 0 0 24 0 0 0 0 23 0 0 0 0 0 0 0 0 0 0 0 0 0 0 0 0 0 0 0 0 0 0 0 0 0 0 0 0 0 0 
		1 31 0 0 0 0 0 0 0 0 0 0 0 26 0 0 0 0 0 0 0 0 0 0 35 0 0 0 0 0 0 0 0 0 0 0 0 0 0 0 0 0 0 0 0 35 0 0 0 0 0 0 0 30 0 
		2 0 0 0 0 0 40 0 0 0 0 0 0 0 27 0 0 0 0 0 0 0 0 0 0 0 37 38 0 0 39 0 0 0 0 30 0 0 0 0 33 0 0 0 0 0 33 0 0 0 0 0 0 0 0 
		3 0 0 0 0 0 0 0 0 22 0 0 0 0 0 0 0 0 0 0 0 0 0 0 0 0 0 0 0 0 0 0 0 0 0 0 36 0 22 0 0 0 0 0 25 0 34 0 0 0 0 0 0 0 0 
		4 0 0 0 0 0 0 0 0 0 0 0 0 0 0 0 0 0 0 0 0 0 0 0 36 34 0 0 24 0 0 0 0 0 0 0 0 0 0 0 26 0 0 0 0 0 0 0 0 0 0 0 0 0 0 
		5 0 0 40 0 0 0 0 0 0 0 0 0 0 0 0 0 0 0 0 0 0 0 0 0 32 37 0 0 0 0 0 0 0 0 40 29 0 0 0 0 0 20 26 0 37 0 36 0 0 0 0 0 0 0 
		6 0 0 0 0 0 0 0 39 0 0 0 0 0 0 0 0 0 0 0 0 25 0 0 39 0 33 0 0 0 0 0 0 0 0 0 0 0 37 34 0 0 0 30 0 0 0 24 0 0 0 35 26 0 0 
		7 0 0 0 0 0 0 39 0 28 0 0 27 0 0 0 0 0 0 0 0 38 0 0 0 0 0 0 0 33 0 34 0 0 0 36 0 0 0 0 0 0 0 0 0 0 0 29 23 0 0 22 0 0 0 
		8 0 0 0 22 0 0 0 28 0 0 0 0 0 0 0 31 0 0 0 29 0 0 0 34 0 29 0 0 0 0 0 29 0 0 0 0 30 0 0 0 40 0 0 0 0 0 0 0 0 0 0 0 0 0 
		9 0 0 0 0 0 0 0 0 0 0 0 0 37 33 0 0 0 0 0 0 0 0 0 0 0 0 0 21 0 0 0 0 0 0 0 0 28 40 0 0 0 30 0 0 0 0 0 0 0 0 0 0 0 0 
		10 0 0 0 0 0 0 0 0 0 0 0 0 21 0 0 0 0 0 0 0 0 0 0 0 0 0 0 0 0 0 0 0 31 0 0 0 0 0 0 0 0 0 0 0 0 0 0 0 0 0 0 0 20 0 
		11 0 0 0 0 0 0 0 27 0 0 0 0 0 0 32 0 0 0 0 0 33 0 22 0 0 0 0 0 0 0 0 0 0 0 0 0 0 0 0 0 30 37 0 0 0 31 0 0 0 37 0 0 0 0 
		12 0 26 0 0 0 0 0 0 0 37 21 0 0 0 33 0 0 0 0 0 0 0 0 0 0 0 0 0 34 0 0 0 0 0 0 0 0 0 0 0 26 0 0 0 0 0 29 0 0 0 0 0 0 0 
		13 0 0 27 0 0 0 0 0 0 33 0 0 0 0 0 21 0 0 0 0 0 0 0 0 0 0 0 0 0 0 38 0 0 0 0 0 0 0 0 31 0 0 0 0 29 0 0 0 0 0 34 32 26 0 
		14 0 0 0 0 0 0 0 0 0 0 0 32 33 0 0 0 0 0 0 0 0 0 31 0 0 30 23 0 0 0 0 0 0 0 0 0 0 0 0 0 0 0 0 0 27 0 0 0 31 0 0 0 36 0 
		15 0 0 0 0 0 0 0 0 31 0 0 0 0 21 0 0 0 0 0 0 0 0 0 40 0 0 0 0 0 40 0 0 0 0 0 0 0 0 0 0 0 0 0 0 0 0 0 0 0 0 0 0 0 0 
		16 0 0 0 0 0 0 0 0 0 0 0 0 0 0 0 0 0 0 0 0 0 0 0 0 0 0 29 0 0 0 0 0 0 35 0 0 0 0 0 0 0 0 0 0 0 28 0 0 0 0 0 37 0 0 
		17 0 0 0 0 0 0 0 0 0 0 0 0 0 0 0 0 0 0 0 0 23 0 0 0 0 0 0 0 0 0 0 0 0 0 0 0 0 0 0 0 0 0 0 0 34 0 0 0 0 0 0 0 0 0 
		18 24 0 0 0 0 0 0 0 0 0 0 0 0 0 0 0 0 0 0 0 0 0 0 0 0 0 0 0 0 24 0 0 0 0 26 0 0 0 0 0 0 34 37 0 0 0 0 0 0 0 0 0 0 0 
		19 0 0 0 0 0 0 0 0 29 0 0 0 0 0 0 0 0 0 0 0 0 0 0 0 0 0 0 0 0 0 0 0 0 0 0 0 0 0 0 30 0 0 0 0 0 0 0 0 0 0 0 0 0 0 
		20 0 0 0 0 0 0 25 38 0 0 0 33 0 0 0 0 0 23 0 0 0 0 0 0 0 0 0 0 0 0 0 0 0 23 35 0 0 0 0 0 0 0 0 0 0 0 0 0 0 0 0 31 29 0 
		21 0 0 0 0 0 0 0 0 0 0 0 0 0 0 0 0 0 0 0 0 0 0 21 0 0 0 0 0 0 0 0 27 0 39 0 29 39 40 0 0 0 31 0 0 23 25 0 33 0 40 0 0 0 0 
		22 0 0 0 0 0 0 0 0 0 0 0 22 0 0 31 0 0 0 0 0 0 21 0 0 0 0 31 0 0 0 0 0 0 0 0 0 0 0 0 0 0 0 0 0 0 21 30 0 0 0 0 0 0 0 
		23 23 35 0 0 36 0 39 0 34 0 0 0 0 0 0 40 0 0 0 0 0 0 0 0 0 0 0 0 0 0 0 0 21 30 0 0 30 0 34 0 20 39 0 0 0 0 0 0 0 0 0 0 31 0 
		24 0 0 0 0 34 32 0 0 0 0 0 0 0 0 0 0 0 0 0 0 0 0 0 0 0 0 0 0 0 0 0 0 0 0 0 0 0 0 31 0 0 0 0 0 0 0 0 20 23 0 0 0 0 0 
		25 0 0 37 0 0 37 33 0 29 0 0 0 0 0 30 0 0 0 0 0 0 0 0 0 0 0 0 25 0 34 0 0 0 0 0 0 0 0 0 0 20 0 0 0 0 38 0 0 28 0 0 0 0 0 
		26 0 0 38 0 0 0 0 0 0 0 0 0 0 0 23 0 29 0 0 0 0 0 31 0 0 0 0 21 0 0 0 0 0 0 0 0 0 0 0 0 0 0 0 35 0 0 0 0 0 0 0 0 0 0 
		27 0 0 0 0 24 0 0 0 0 21 0 0 0 0 0 0 0 0 0 0 0 0 0 0 0 25 21 0 0 0 0 0 0 0 0 0 0 0 0 0 0 0 0 27 0 0 0 0 0 0 35 0 0 0 
		28 0 0 0 0 0 0 0 33 0 0 0 0 34 0 0 0 0 0 0 0 0 0 0 0 0 0 0 0 0 0 0 0 0 0 0 40 0 0 0 0 0 0 0 0 26 0 0 0 0 0 0 0 34 0 
		29 0 0 39 0 0 0 0 0 0 0 0 0 0 0 0 40 0 0 24 0 0 0 0 0 0 34 0 0 0 0 0 0 0 0 0 0 0 0 0 0 0 0 29 0 0 0 0 0 0 0 0 0 0 0 
		30 0 0 0 0 0 0 0 34 0 0 0 0 0 38 0 0 0 0 0 0 0 0 0 0 0 0 0 0 0 0 0 0 0 0 0 0 0 0 0 37 20 0 0 39 0 0 0 0 0 0 20 0 0 0 
		31 0 0 0 0 0 0 0 0 29 0 0 0 0 0 0 0 0 0 0 0 0 27 0 0 0 0 0 0 0 0 0 0 0 0 0 0 0 0 0 0 0 0 0 0 0 0 0 0 0 0 0 0 0 28 
		32 0 0 0 0 0 0 0 0 0 0 31 0 0 0 0 0 0 0 0 0 0 0 0 21 0 0 0 0 0 0 0 0 0 0 0 0 0 0 0 0 0 0 0 0 0 0 0 0 0 0 0 0 0 0 
		33 0 0 0 0 0 0 0 0 0 0 0 0 0 0 0 0 35 0 0 0 23 39 0 30 0 0 0 0 0 0 0 0 0 0 0 0 28 0 0 0 39 0 0 0 0 0 0 0 35 0 0 0 0 0 
		34 0 0 30 0 0 40 0 36 0 0 0 0 0 0 0 0 0 0 26 0 35 0 0 0 0 0 0 0 0 0 0 0 0 0 0 0 0 38 0 0 0 38 0 0 0 0 39 0 0 0 0 0 0 0 
		35 0 0 0 36 0 29 0 0 0 0 0 0 0 0 0 0 0 0 0 0 0 29 0 0 0 0 0 0 40 0 0 0 0 0 0 0 0 0 0 0 0 0 0 0 22 0 0 0 0 0 0 0 0 34 
		36 0 0 0 0 0 0 0 0 30 28 0 0 0 0 0 0 0 0 0 0 0 39 0 30 0 0 0 0 0 0 0 0 0 28 0 0 0 0 0 0 21 0 24 0 0 20 0 0 0 0 0 26 37 0 
		37 0 0 0 22 0 0 37 0 0 40 0 0 0 0 0 0 0 0 0 0 0 40 0 0 0 0 0 0 0 0 0 0 0 0 38 0 0 0 0 0 0 0 0 35 0 0 0 0 0 0 0 0 0 0 
		38 0 0 0 0 0 0 34 0 0 0 0 0 0 0 0 0 0 0 0 0 0 0 0 34 31 0 0 0 0 0 0 0 0 0 0 0 0 0 0 0 0 0 0 0 25 0 0 20 0 0 0 0 0 0 
		39 0 0 33 0 26 0 0 0 0 0 0 0 0 31 0 0 0 0 0 30 0 0 0 0 0 0 0 0 0 0 37 0 0 0 0 0 0 0 0 0 0 0 0 0 0 0 0 0 0 0 36 0 0 0 
		40 0 0 0 0 0 0 0 0 40 0 0 30 26 0 0 0 0 0 0 0 0 0 0 20 0 20 0 0 0 0 20 0 0 39 0 0 21 0 0 0 0 0 0 0 0 30 0 0 0 36 0 0 0 24 
		41 0 0 0 0 0 20 0 0 0 30 0 37 0 0 0 0 0 0 34 0 0 31 0 39 0 0 0 0 0 0 0 0 0 0 38 0 0 0 0 0 0 0 0 0 0 0 0 0 34 0 0 0 0 0 
		42 0 0 0 0 0 26 30 0 0 0 0 0 0 0 0 0 0 0 37 0 0 0 0 0 0 0 0 0 0 29 0 0 0 0 0 0 24 0 0 0 0 0 0 0 0 0 0 0 0 0 0 0 0 33 
		43 0 0 0 25 0 0 0 0 0 0 0 0 0 0 0 0 0 0 0 0 0 0 0 0 0 0 35 27 0 0 39 0 0 0 0 0 0 35 0 0 0 0 0 0 0 0 0 0 0 0 0 0 0 0 
		44 0 35 0 0 0 37 0 0 0 0 0 0 0 29 27 0 0 34 0 0 0 23 0 0 0 0 0 0 26 0 0 0 0 0 0 22 0 0 25 0 0 0 0 0 0 26 36 0 32 0 0 26 0 0 
		45 0 0 33 34 0 0 0 0 0 0 0 31 0 0 0 0 28 0 0 0 0 25 21 0 0 38 0 0 0 0 0 0 0 0 0 0 20 0 0 0 30 0 0 0 26 0 0 0 0 0 0 0 25 0 
		46 0 0 0 0 0 36 24 29 0 0 0 0 29 0 0 0 0 0 0 0 0 0 30 0 0 0 0 0 0 0 0 0 0 0 39 0 0 0 0 0 0 0 0 0 36 0 0 0 23 0 0 0 0 0 
		47 0 0 0 0 0 0 0 23 0 0 0 0 0 0 0 0 0 0 0 0 0 33 0 0 20 0 0 0 0 0 0 0 0 0 0 0 0 0 20 0 0 0 0 0 0 0 0 0 0 0 0 0 0 0 
		48 0 0 0 0 0 0 0 0 0 0 0 0 0 0 31 0 0 0 0 0 0 0 0 0 23 28 0 0 0 0 0 0 0 35 0 0 0 0 0 0 0 34 0 0 32 0 23 0 0 33 0 0 0 0 
		49 0 0 0 0 0 0 0 0 0 0 0 37 0 0 0 0 0 0 0 0 0 40 0 0 0 0 0 0 0 0 0 0 0 0 0 0 0 0 0 0 36 0 0 0 0 0 0 0 33 0 0 0 31 0 
		50 0 0 0 0 0 0 35 22 0 0 0 0 0 34 0 0 0 0 0 0 0 0 0 0 0 0 0 35 0 0 20 0 0 0 0 0 0 0 0 36 0 0 0 0 0 0 0 0 0 0 0 0 0 0 
		51 0 0 0 0 0 0 26 0 0 0 0 0 0 32 0 0 37 0 0 0 31 0 0 0 0 0 0 0 0 0 0 0 0 0 0 0 26 0 0 0 0 0 0 0 26 0 0 0 0 0 0 0 0 0 
		52 0 30 0 0 0 0 0 0 0 0 20 0 0 26 36 0 0 0 0 0 29 0 0 31 0 0 0 0 34 0 0 0 0 0 0 0 37 0 0 0 0 0 0 0 0 25 0 0 0 31 0 0 0 39 
		53 0 0 0 0 0 0 0 0 0 0 0 0 0 0 0 0 0 0 0 0 0 0 0 0 0 0 0 0 0 0 0 28 0 0 0 34 0 0 0 0 24 0 33 0 0 0 0 0 0 0 0 0 39 0 
;
